p cnf 296 549
e 1 2 3 4 5 6 7 8 9 10 11 12 13 14 15 16 17 18 19 20 21 22 23 24 25 26 27 28 29 30 31 32 33 34 35 36 37 38 39 40 41 42 43 44 45 46 47 48 49 50 51 52 53 54 55 56 57 58 59 60 61 62 63 64 65 66 67 68 69 70 71 72 73 74 75 76 77 78 79 80 81 82 83 84 85 86 87 88 89 90 91 92 93 94 95 96 97 98 99 100 101 102 103 104 105 106 107 108 109 110 111 112 113 114 115 116 117 118 119 120 121 122 123 124 125 126 127 128 129 130 131 132 133 134 135 136 137 138 139 140 141 142 143 144 145 146 147 148 149 150 151 152 153 154 155 156 157 158 159 160 161 162 163 164 165 166 167 168 169 170 171 172 173 174 175 176 177 178 179 180 181 182 183 184 185 186 187 188 189 190 191 192 193 194 195 196 197 198 199 200 201 202 203 204 205 206 207 208 209 210 211 212 213 214 215 216 217 218 219 220 221 222 223 224 225 226 227 228 229 230 231 232 233 234 235 236 237 238 239 240 241 242 243 244 245 246 247 248 249 250 251 252 253 254 255 256 257 258 259 260 261 262 263 264 265 266 267 268 269 270 271 272 273 274 275 276 277 278 279 280 281 282 283 284 285 286 287 288 289 293 290 296 291 295 294 292 0
-245 0
-43 0
-52 0
-55 0
-101 0
190 0
-122 0
-164 0
-21 0
-33 0
-40 0
-131 0
-146 0
-167 0
-237 0
-17 0
-18 0
-34 0
-25 0
-104 0
175 0
246 0
-8 0
-11 0
-68 0
-6 0
-222 0
180 0
186 0
-23 0
-44 0
-47 0
188 0
-73 0
-231 0
-137 0
-158 0
-221 0
-223 0
-65 0
-42 0
-57 0
-226 0
-36 0
-39 0
192 0
-51 0
-67 0
181 0
-4 0
-9 0
-13 0
-69 0
177 0
-37 0
-54 0
-66 0
-228 0
-14 0
-53 0
-238 0
-242 0
-236 0
-229 0
-15 0
-28 0
178 0
-3 0
-107 0
-239 0
-61 0
-116 0
174 0
1 0
-29 0
-7 0
184 0
195 0
-27 0
-48 0
183 0
-24 0
-49 0
-60 0
187 0
189 0
-20 0
-35 0
-38 0
-233 0
172 0
191 0
-224 0
-30 0
-72 0
-143 0
-161 0
-64 0
-70 0
-110 0
-134 0
-149 0
-196 0
-59 0
-58 0
185 0
-19 0
-45 0
-63 0
173 0
171 0
-2 0
-5 0
-46 0
-128 0
179 0
-289 0
-32 0
-50 0
-230 0
-22 0
-243 0
-232 0
-240 0
-16 0
-152 0
-155 0
-26 0
-31 0
-10 0
-119 0
-234 0
193 0
-244 0
-113 0
194 0
-227 0
182 0
-235 0
-225 0
176 0
-62 0
-12 0
-125 0
-140 0
-170 0
-241 0
-41 0
-56 0
-71 0
290 291 292 293 294 295 296 0
-99 100 0
99 -100 0
-102 103 0
102 -103 0
-105 106 0
105 -106 0
-108 109 0
108 -109 0
-111 112 0
111 -112 0
-114 115 0
114 -115 0
-117 118 0
117 -118 0
-120 121 0
120 -121 0
-123 124 0
123 -124 0
-126 127 0
126 -127 0
-129 130 0
129 -130 0
-132 133 0
132 -133 0
-135 136 0
135 -136 0
-138 139 0
138 -139 0
-141 142 0
141 -142 0
-144 145 0
144 -145 0
-147 148 0
147 -148 0
-150 151 0
150 -151 0
-153 154 0
153 -154 0
-156 157 0
156 -157 0
-159 160 0
159 -160 0
-162 163 0
162 -163 0
-165 166 0
165 -166 0
-168 169 0
168 -169 0
74 -100 0
74 -103 0
74 -106 0
74 -109 0
74 -112 0
74 -115 0
74 -118 0
74 -121 0
74 -124 0
74 -127 0
74 -130 0
74 -133 0
74 -136 0
74 -139 0
74 -142 0
74 -145 0
74 -148 0
74 -151 0
74 -154 0
74 -157 0
74 -160 0
74 -163 0
74 -166 0
74 -169 0
75 -100 0
76 -103 0
77 -106 0
78 -109 0
79 -112 0
80 -115 0
81 -118 0
82 -121 0
83 -124 0
84 -127 0
85 -130 0
86 -133 0
87 -136 0
88 -139 0
89 -142 0
90 -145 0
91 -148 0
92 -151 0
93 -154 0
94 -157 0
95 -160 0
96 -163 0
97 -166 0
98 -169 0
247 -100 -103 0
-247 100 0
-247 103 0
248 -106 -109 0
-248 106 0
-248 109 0
249 -118 -121 -124 0
-249 118 0
-249 121 0
-249 124 0
250 -127 -130 -133 0
-250 127 0
-250 130 0
-250 133 0
251 -136 -139 -142 0
-251 136 0
-251 139 0
-251 142 0
252 -145 -148 -151 0
-252 145 0
-252 148 0
-252 151 0
253 -154 -157 -160 0
-253 154 0
-253 157 0
-253 160 0
254 -163 -166 -169 0
-254 163 0
-254 166 0
-254 169 0
255 -106 -112 0
-255 106 0
-255 112 0
256 -118 -127 -136 0
-256 118 0
-256 127 0
-256 136 0
257 -145 -154 -163 0
-257 145 0
-257 154 0
-257 163 0
258 -100 -115 0
-258 100 0
-258 115 0
259 -121 -130 -139 0
-259 121 0
-259 130 0
-259 139 0
260 -148 -157 -166 0
-260 148 0
-260 157 0
-260 166 0
261 -124 -133 -142 0
-261 124 0
-261 133 0
-261 142 0
262 -151 -160 -169 0
-262 151 0
-262 160 0
-262 169 0
263 -118 -130 -142 0
-263 118 0
-263 130 0
-263 142 0
264 -145 -157 -169 0
-264 145 0
-264 157 0
-264 169 0
265 -103 -112 0
-265 103 0
-265 112 0
266 -124 -130 -136 0
-266 124 0
-266 130 0
-266 136 0
267 -124 -130 -136 0
-267 124 0
-267 130 0
-267 136 0
268 -118 -145 0
-268 118 0
-268 145 0
269 -100 -121 -148 0
-269 100 0
-269 121 0
-269 148 0
270 -103 -124 -151 0
-270 103 0
-270 124 0
-270 151 0
271 -106 -127 -154 0
-271 106 0
-271 127 0
-271 154 0
272 -130 -157 0
-272 130 0
-272 157 0
273 -109 -133 -160 0
-273 109 0
-273 133 0
-273 160 0
274 -112 -136 -163 0
-274 112 0
-274 136 0
-274 163 0
275 -115 -139 -166 0
-275 115 0
-275 139 0
-275 166 0
276 -127 -163 0
-276 127 0
-276 163 0
277 -100 -130 -166 0
-277 100 0
-277 130 0
-277 166 0
278 -103 -133 -169 0
-278 103 0
-278 133 0
-278 169 0
279 -112 -127 -145 0
-279 112 0
-279 127 0
-279 145 0
280 -115 -130 -148 0
-280 115 0
-280 130 0
-280 148 0
281 -121 -151 0
-281 121 0
-281 151 0
282 -106 -130 -160 0
-282 106 0
-282 130 0
-282 160 0
283 -112 -139 -169 0
-283 112 0
-283 139 0
-283 169 0
284 -103 -121 -145 0
-284 103 0
-284 121 0
-284 145 0
285 -109 -130 -154 0
-285 109 0
-285 130 0
-285 154 0
286 -130 -169 0
-286 130 0
-286 169 0
287 -103 -130 -169 0
-287 103 0
-287 130 0
-287 169 0
288 -112 -130 -151 0
-288 112 0
-288 130 0
-288 151 0
247 248 249 250 251 252 253 254 255 256 257 258 259 260 261 262 263 264 265 266 267 268 269 270 271 272 273 274 275 276 277 278 279 280 281 282 283 284 285 286 287 288 0
-75 197 0
75 -197 0
-76 198 0
-197 198 0
76 -198 197 0
-76 -197 0
-77 199 0
-198 199 0
77 -199 198 0
-77 -198 0
-78 200 0
-199 200 0
78 -200 199 0
-78 -199 0
-79 201 0
-200 201 0
79 -201 200 0
-79 -200 0
-80 202 0
-201 202 0
80 -202 201 0
-80 -201 0
-81 203 0
-202 203 0
81 -203 202 0
-81 -202 0
-82 204 0
-203 204 0
82 -204 203 0
-82 -203 0
-83 205 0
-204 205 0
83 -205 204 0
-83 -204 0
-84 206 0
-205 206 0
84 -206 205 0
-84 -205 0
-85 207 0
-206 207 0
85 -207 206 0
-85 -206 0
-86 208 0
-207 208 0
86 -208 207 0
-86 -207 0
-87 209 0
-208 209 0
87 -209 208 0
-87 -208 0
-88 210 0
-209 210 0
88 -210 209 0
-88 -209 0
-89 211 0
-210 211 0
89 -211 210 0
-89 -210 0
-90 212 0
-211 212 0
90 -212 211 0
-90 -211 0
-91 213 0
-212 213 0
91 -213 212 0
-91 -212 0
-92 214 0
-213 214 0
92 -214 213 0
-92 -213 0
-93 215 0
-214 215 0
93 -215 214 0
-93 -214 0
-94 216 0
-215 216 0
94 -216 215 0
-94 -215 0
-95 217 0
-216 217 0
95 -217 216 0
-95 -216 0
-96 218 0
-217 218 0
96 -218 217 0
-96 -217 0
-97 219 0
-218 219 0
97 -219 218 0
-97 -218 0
-98 220 0
-219 220 0
98 -220 219 0
-98 -219 0
-74 220 0
-75 100 0
-75 74 0
-76 103 0
-76 74 0
-77 106 0
-77 74 0
-78 109 0
-78 74 0
-79 112 0
-79 74 0
-80 115 0
-80 74 0
-81 118 0
-81 74 0
-82 121 0
-82 74 0
-83 124 0
-83 74 0
-84 127 0
-84 74 0
-85 130 0
-85 74 0
-86 133 0
-86 74 0
-87 136 0
-87 74 0
-88 139 0
-88 74 0
-89 142 0
-89 74 0
-90 145 0
-90 74 0
-91 148 0
-91 74 0
-92 151 0
-92 74 0
-93 154 0
-93 74 0
-94 157 0
-94 74 0
-95 160 0
-95 74 0
-96 163 0
-96 74 0
-97 166 0
-97 74 0
-98 169 0
-98 74 0
